702 5
10 10 10 10 10 

0 0 0 0 0 0 5 2 54 106 118 170 
0 0 0 0 0 0 5 3 4 5 6 17 
8 1 3 2 1 1 4 18 15 12 8 
9 5 2 5 2 4 4 18 15 11 9 
2 5 6 6 5 8 3 18 9 7 
4 2 2 2 7 5 2 18 9 
2 8 9 4 8 4 3 22 15 10 
8 8 5 7 6 5 1 9 
4 7 6 7 5 3 2 22 10 
8 6 5 10 10 4 3 21 20 13 
4 1 4 8 6 8 3 22 21 14 
9 7 2 6 5 7 2 21 16 
9 9 1 4 7 5 1 14 
8 6 3 7 4 4 1 16 
2 4 3 2 3 6 1 16 
8 10 7 2 6 5 4 29 28 23 19 
6 6 6 3 4 2 3 29 19 18 
1 5 3 5 6 7 3 26 24 23 
2 5 3 3 8 6 2 26 24 
8 2 6 6 3 4 2 26 25 
3 4 3 5 5 3 1 23 
4 6 9 5 6 7 1 23 
8 7 6 4 5 5 1 25 
7 3 5 5 9 2 1 25 
4 6 5 4 6 2 1 27 
2 7 2 4 3 9 1 27 
2 6 6 5 6 5 3 35 33 30 
9 1 6 3 6 4 3 35 33 31 
4 5 7 7 3 4 2 33 30 
2 6 4 8 2 4 2 31 650 
8 6 5 5 7 8 1 32 
7 8 7 1 5 6 3 39 36 34 
10 3 4 5 3 8 3 41 36 34 
4 7 6 7 3 6 2 44 37 
10 3 7 3 5 4 1 36 
8 10 3 3 6 4 1 38 
6 2 5 7 5 4 1 38 
6 4 4 5 5 7 1 40 
4 6 5 6 2 6 1 41 
8 5 7 3 5 2 1 42 
2 5 6 8 5 9 1 42 
9 4 6 3 3 5 1 43 
9 2 5 10 5 6 1 45 
3 2 6 5 5 3 1 45 
10 6 5 5 4 3 3 50 48 46 
2 3 6 5 8 4 1 47 
2 4 3 2 6 10 2 52 49 
4 4 2 6 3 4 1 49 
9 5 7 6 4 6 1 51 
2 3 8 1 5 2 1 51 
4 4 10 10 4 5 1 53 
3 6 4 5 5 5 1 53 
0 0 0 0 0 0 1 702 
0 0 0 0 0 0 5 55 56 57 59 66 
6 1 1 1 5 1 4 70 68 64 60 
8 7 4 4 3 3 4 70 68 63 61 
9 5 4 5 4 4 2 61 58 
7 3 1 6 5 4 3 70 68 62 
8 5 4 10 2 6 2 70 61 
9 9 2 7 6 7 1 61 
4 3 8 4 6 6 1 62 
5 6 7 4 5 10 4 74 73 72 65 
9 4 4 4 3 5 3 74 73 67 
8 6 6 7 5 4 2 73 69 
3 5 3 5 4 5 1 67 
2 5 5 3 3 3 3 81 80 70 
9 7 3 5 6 3 1 69 
9 8 6 4 5 5 1 69 
7 3 3 4 6 5 4 81 80 75 71 
3 9 6 6 7 6 2 75 71 
8 3 4 4 8 4 2 78 76 
10 3 3 2 4 5 2 78 77 
2 4 5 9 1 4 1 75 
1 5 2 6 6 6 1 75 
1 6 3 5 8 1 1 77 
9 4 6 6 10 6 1 77 
7 5 10 6 9 6 1 79 
6 2 5 5 7 7 1 79 
7 7 4 6 8 2 2 87 82 
7 3 10 3 2 5 3 87 85 83 
5 5 7 2 7 7 1 82 
8 3 2 5 6 5 2 85 83 
9 5 8 3 6 7 1 84 
8 3 4 6 1 7 3 91 88 86 
7 2 5 6 10 6 3 93 88 86 
6 4 4 3 4 1 2 96 89 
5 6 8 5 4 4 2 93 88 
5 3 3 6 5 5 1 90 
1 5 5 5 5 8 1 90 
5 4 6 4 5 4 1 92 
9 6 9 8 3 5 1 93 
4 5 7 8 4 6 1 94 
3 5 6 4 4 5 1 94 
3 7 3 3 5 2 1 95 
5 7 5 5 3 9 1 97 
3 3 5 3 4 7 1 97 
8 9 5 5 2 4 3 102 100 98 
6 8 7 4 5 3 1 99 
6 4 4 6 2 4 2 104 101 
6 5 4 6 5 7 1 101 
10 5 9 7 3 4 1 103 
3 5 6 6 5 6 2 103 321 
5 5 5 4 8 4 1 105 
8 8 4 5 6 7 1 105 
0 0 0 0 0 0 1 702 
0 0 0 0 0 0 1 107 
3 0 1 0 0 0 4 114 113 110 108 
7 0 7 0 0 0 1 109 
1 0 6 0 0 0 2 112 111 
10 0 9 0 0 0 2 115 111 
6 0 7 0 0 0 1 116 
6 0 2 0 0 0 1 115 
5 0 3 0 0 0 1 116 
9 0 4 0 0 0 2 115 628 
3 0 7 0 0 0 1 117 
7 0 4 0 0 0 1 117 
0 0 0 0 0 0 5 222 264 306 318 360 
0 0 0 0 0 0 4 119 120 121 122 
10 1 1 1 1 1 5 130 129 125 124 123 
6 7 4 3 7 4 4 130 125 124 123 
8 4 5 6 7 5 2 129 123 
10 6 6 8 3 8 4 129 128 126 605 
5 4 2 9 5 3 3 132 128 126 
1 3 4 2 3 5 2 132 127 
4 6 7 4 5 4 1 126 
1 8 6 6 5 5 1 127 
7 8 7 3 4 6 4 138 136 135 131 
5 4 3 5 6 9 4 138 136 135 133 
4 3 5 6 7 4 3 136 133 132 
7 4 9 4 3 8 3 135 133 132 
2 6 4 5 3 3 1 133 
3 5 6 2 4 7 4 145 143 138 137 
1 3 5 1 5 5 1 134 
10 7 5 4 4 8 4 145 143 140 137 
7 6 4 2 4 3 4 145 143 140 137 
7 5 3 5 8 5 3 143 140 137 
8 4 6 4 5 4 2 141 139 
8 9 6 3 4 7 2 140 139 
8 2 5 4 8 6 1 142 
3 8 4 6 6 6 1 142 
7 8 8 7 4 3 1 142 
4 4 2 7 6 4 1 144 
4 4 7 8 5 4 1 144 
7 4 5 4 3 3 1 146 
2 2 6 8 5 2 1 146 
9 3 3 4 5 6 3 151 149 147 
5 7 4 8 3 4 1 148 
7 6 3 6 5 5 2 154 150 
5 4 5 3 6 5 1 150 
7 2 4 4 2 5 3 156 153 152 
4 4 4 5 6 5 2 156 152 
8 4 3 7 8 3 2 159 155 
5 7 9 7 8 5 2 159 155 
10 4 6 5 5 5 1 156 
8 6 3 5 3 4 1 157 
6 3 5 3 6 5 1 157 
9 4 10 4 4 5 1 158 
4 3 3 9 7 7 1 160 
7 8 7 6 5 6 1 160 
5 4 6 4 3 6 1 161 
9 5 6 4 9 5 2 164 162 
8 8 7 5 5 6 2 165 163 
9 3 5 4 3 6 2 168 166 
10 8 4 7 3 9 2 168 166 
8 5 5 4 7 4 2 168 167 
9 4 5 5 8 2 1 167 
8 4 3 6 4 7 1 169 
4 9 5 8 5 3 1 169 
0 0 0 0 0 0 1 702 
0 0 0 0 0 0 4 171 172 173 175 
1 2 2 1 1 1 6 181 180 179 176 174 342 
6 6 4 3 4 3 3 179 176 174 
2 7 10 3 4 8 2 180 174 
7 4 8 3 4 4 3 184 183 177 
4 3 5 8 10 6 3 184 183 177 
2 9 6 7 6 5 1 177 
7 2 3 7 4 7 1 178 
6 9 2 3 3 3 4 190 188 187 182 
1 5 3 4 8 2 3 188 184 182 
3 6 5 6 6 5 3 187 185 184 
8 4 6 6 5 6 3 188 185 184 
1 2 9 6 3 6 1 185 
10 6 1 4 7 4 1 185 
9 3 4 2 8 4 4 197 195 190 189 
9 3 3 3 2 3 1 186 
10 4 5 4 3 4 4 197 195 191 189 
8 2 8 5 5 1 3 195 191 189 
6 5 4 7 3 3 4 197 193 192 191 
1 3 4 5 2 10 2 193 192 
4 10 4 8 3 4 1 191 
10 5 6 9 5 4 1 194 
7 5 7 4 5 4 1 194 
5 5 4 4 3 6 1 194 
2 3 8 7 6 4 1 196 
8 5 5 4 7 5 1 196 
1 7 4 6 7 3 1 198 
3 3 4 3 4 7 1 198 
5 3 6 3 3 2 3 203 201 199 
4 4 4 4 6 4 1 200 
5 3 4 2 5 4 2 206 202 
2 5 5 6 7 5 1 202 
9 10 5 7 7 9 3 209 205 204 
3 8 5 5 3 9 2 209 204 
2 5 5 5 4 8 2 211 207 
1 6 5 7 4 2 2 211 207 
2 5 8 5 6 7 2 209 208 
5 6 5 6 4 3 1 208 
3 6 4 6 4 9 1 210 
10 5 3 7 8 4 1 210 
6 4 4 4 6 6 1 212 
9 7 5 6 7 9 1 212 
9 4 6 2 7 5 1 213 
6 4 4 4 5 4 2 216 214 
2 3 6 5 5 5 2 217 215 
7 7 5 5 4 4 2 220 218 
1 3 9 4 4 10 2 220 218 
1 7 6 7 7 3 2 220 219 
2 8 6 6 5 2 1 219 
3 1 4 7 2 4 1 221 
5 8 2 5 9 10 1 221 
0 0 0 0 0 0 1 702 
0 0 0 0 0 0 2 223 224 
10 0 3 1 2 1 1 225 
5 0 5 4 10 8 1 225 
3 0 4 5 6 5 2 227 226 
5 0 9 5 3 3 4 232 231 230 228 
10 0 1 5 3 5 4 232 231 230 229 
10 0 6 4 3 2 1 229 
5 0 4 3 7 5 3 235 234 233 
6 0 10 5 4 6 3 235 234 233 
10 0 5 4 5 7 3 235 234 233 
2 0 2 5 4 3 2 234 233 
9 0 6 9 7 8 2 239 236 
4 0 4 4 4 3 2 239 236 
5 0 5 5 6 1 2 239 236 
3 0 4 5 4 3 1 237 
8 0 4 5 4 8 2 238 700 
8 0 8 5 2 7 2 241 240 
5 0 8 5 3 4 2 241 240 
5 0 6 3 4 6 3 244 243 242 
4 0 3 4 7 7 2 244 243 
4 0 7 8 1 4 3 248 247 245 
7 0 3 5 7 8 2 248 245 
3 0 5 6 7 5 3 250 247 246 
2 0 5 6 8 4 1 246 
6 0 4 3 5 2 2 252 249 
1 0 4 6 9 7 2 252 251 
1 0 1 5 5 3 1 250 
9 0 8 3 3 6 2 253 251 
9 0 2 7 3 5 2 253 251 
8 0 10 8 5 6 1 254 
3 0 7 4 6 3 1 253 
7 0 2 5 8 6 3 257 256 255 
2 0 8 8 2 5 3 257 256 255 
10 0 4 6 10 7 2 259 258 
8 0 5 4 6 4 2 259 258 
3 0 7 5 5 4 2 259 258 
8 0 7 5 6 4 2 262 260 
3 0 4 5 2 3 2 262 261 
3 0 2 6 6 6 1 261 
3 0 3 4 4 9 1 263 
4 0 5 5 4 7 1 263 
0 0 0 0 0 0 1 702 
0 0 0 0 0 0 2 265 271 
3 0 1 1 1 1 2 304 266 
8 0 6 8 2 6 2 269 267 
2 0 1 3 7 4 4 291 277 274 268 
7 0 7 8 5 6 1 270 
4 0 4 5 4 3 4 295 291 275 273 
2 0 6 7 5 4 3 275 272 520 
10 0 4 2 7 3 3 295 276 274 
3 0 7 10 6 5 2 295 273 
2 0 7 2 9 8 3 294 288 276 
6 0 4 9 5 6 2 294 275 
9 0 2 9 2 6 4 303 288 281 278 
9 0 1 4 4 5 3 303 281 278 
10 0 3 7 8 5 3 294 288 279 
9 0 5 3 5 6 1 279 
6 0 3 3 3 7 2 300 280 
9 0 5 5 3 6 4 302 301 293 282 
10 0 6 8 6 4 4 300 299 293 283 
6 0 7 4 6 2 2 299 283 
10 0 8 5 4 2 2 290 284 
10 0 7 4 4 4 1 285 
10 0 3 7 6 4 2 298 286 
9 0 8 4 3 5 1 287 
1 0 4 3 5 9 2 297 289 
3 0 4 3 2 5 1 289 
6 0 3 8 4 8 1 292 
4 0 5 3 8 6 1 292 
4 0 3 7 6 5 1 294 
9 0 4 5 4 7 1 296 
3 0 7 5 2 6 1 296 
1 0 7 5 4 3 1 297 
4 0 4 7 7 2 1 297 
7 0 4 4 5 7 1 305 
1 0 10 4 5 3 1 305 
5 0 4 4 4 5 1 305 
5 0 5 3 8 2 1 305 
10 0 7 4 6 5 1 305 
5 0 8 3 6 7 1 305 
1 0 4 7 8 6 1 305 
4 0 4 3 5 7 1 305 
2 0 8 4 6 5 1 305 
0 0 0 0 0 0 1 702 
0 0 0 0 0 0 3 307 308 309 
1 1 0 0 0 0 3 313 311 310 
4 7 0 0 0 0 3 311 310 494 
8 6 0 0 0 0 1 310 
7 4 0 0 0 0 1 312 
1 2 0 0 0 0 1 312 
7 2 0 0 0 0 1 314 
8 8 0 0 0 0 1 314 
5 6 0 0 0 0 2 316 315 
8 8 0 0 0 0 1 317 
4 6 0 0 0 0 1 317 
0 0 0 0 0 0 5 402 434 446 478 510 
0 0 0 0 0 0 2 319 321 
3 0 1 2 4 2 1 320 
7 0 7 2 5 3 2 323 322 
3 0 6 9 3 4 1 322 
4 0 8 10 4 5 4 334 328 326 325 
4 0 4 4 2 6 3 328 326 324 
6 0 5 5 5 6 1 325 
8 0 5 4 1 10 3 332 330 327 
4 0 5 6 8 2 3 338 332 331 
1 0 3 2 7 3 2 338 329 
5 0 6 6 6 2 2 332 331 
10 0 5 6 8 7 1 331 
2 0 3 6 3 6 1 331 
8 0 7 6 5 7 2 340 333 
7 0 4 3 5 5 2 340 333 
1 0 5 3 4 4 3 342 337 335 
9 0 5 6 5 6 3 343 341 338 
8 0 5 6 5 6 1 336 
6 0 3 2 3 4 5 351 346 343 339 451 
4 0 8 5 3 3 2 346 339 
4 0 7 4 2 5 3 351 345 342 
8 0 2 8 4 8 1 341 
5 0 3 6 6 8 3 351 349 344 
5 0 4 3 2 5 2 347 344 
10 0 10 7 7 3 3 353 348 346 
6 0 5 4 8 3 3 353 349 348 
6 0 3 4 5 2 2 350 345 
10 0 6 4 7 3 2 353 348 
8 0 9 5 4 4 1 349 
5 0 7 8 9 8 1 349 
5 0 4 6 2 2 2 358 352 
2 0 4 5 8 6 1 350 
5 0 5 8 6 6 3 358 357 354 
3 0 3 6 7 4 3 358 357 355 
1 0 2 2 3 7 2 357 354 
10 0 7 5 4 8 2 358 357 
6 0 5 4 3 3 1 355 
7 0 5 3 10 4 1 356 
8 0 6 5 6 5 1 359 
10 0 4 7 3 7 1 359 
4 0 4 3 8 8 1 359 
0 0 0 0 0 0 1 702 
0 0 0 0 0 0 2 361 363 
5 1 1 0 1 1 1 362 
1 3 4 0 8 4 3 365 364 436 
10 4 3 0 4 7 1 364 
3 3 8 0 4 4 4 376 370 368 367 
1 4 2 0 6 6 3 370 368 366 
1 5 4 0 5 9 1 367 
5 7 6 0 7 7 3 374 372 369 
10 2 4 0 7 6 3 380 374 373 
8 3 4 0 5 4 2 380 371 
10 5 4 0 6 6 2 374 371 
7 6 4 0 4 4 1 373 
2 8 6 0 3 9 1 373 
6 2 4 0 7 1 2 382 375 
3 4 5 0 6 2 2 382 375 
4 5 6 0 4 4 3 384 379 377 
5 6 5 0 2 5 3 385 381 380 
8 4 7 0 4 2 1 378 
7 7 3 0 4 2 4 391 388 385 381 
4 5 6 0 7 6 3 391 388 381 
8 6 5 0 6 3 2 391 384 
2 6 4 0 6 5 1 383 
10 4 2 0 5 3 3 392 391 386 
10 8 5 0 7 7 2 389 386 
2 6 6 0 3 4 2 388 387 
4 6 8 0 10 4 3 395 392 390 
3 6 5 0 4 8 2 393 387 
3 5 9 0 8 6 2 395 390 
9 2 7 0 7 5 1 392 
8 6 5 0 8 3 1 392 
2 7 3 0 7 8 2 400 394 
7 6 9 0 6 6 2 400 394 
7 7 3 0 3 6 1 393 
1 5 7 0 4 6 3 400 399 396 
4 6 4 0 3 4 2 399 396 
4 4 5 0 1 7 3 400 399 398 
9 5 4 0 3 7 1 397 
1 3 9 0 5 7 1 398 
6 6 3 0 2 4 1 401 
2 4 5 0 3 5 1 401 
7 8 6 0 5 3 1 401 
0 0 0 0 0 0 1 702 
0 0 0 0 0 0 3 403 404 432 
2 0 1 0 2 2 2 431 405 
8 0 6 0 6 4 2 431 405 
4 0 6 0 3 4 2 409 406 
9 0 3 0 3 6 2 413 407 
2 0 10 0 5 5 2 430 408 
8 0 7 0 4 3 2 420 410 
6 0 6 0 5 5 2 413 411 
8 0 3 0 4 6 1 411 
9 0 3 0 3 5 3 424 416 412 
3 0 8 0 4 5 2 421 414 
7 0 1 0 2 9 2 424 414 
2 0 3 0 4 2 1 415 
7 0 3 0 6 2 2 429 417 
8 0 1 0 7 5 2 429 418 
5 0 7 0 10 5 1 418 
10 0 6 0 5 3 3 427 423 419 
9 0 4 0 10 3 3 428 426 422 
5 0 7 0 4 9 3 427 426 422 
6 0 4 0 4 7 1 422 
6 0 8 0 6 4 1 425 
4 0 5 0 3 4 1 426 
5 0 3 0 5 3 1 429 
2 0 7 0 7 10 1 433 
4 0 5 0 5 3 2 433 523 
8 0 5 0 6 4 1 433 
10 0 8 0 4 6 1 433 
9 0 5 0 4 5 1 433 
8 0 6 0 4 9 1 433 
4 0 7 0 8 7 1 433 
1 0 2 0 7 5 1 433 
0 0 0 0 0 0 1 702 
0 0 0 0 0 0 2 435 438 
1 0 0 0 1 0 3 440 437 436 
7 0 0 0 6 0 3 442 439 699 
8 0 0 0 6 0 2 442 439 
7 0 0 0 4 0 3 444 442 441 
8 0 0 0 6 0 2 444 441 
6 0 0 0 5 0 2 442 441 
5 0 0 0 5 0 1 443 
8 0 0 0 6 0 1 443 
3 0 0 0 6 0 1 445 
2 0 0 0 5 0 1 445 
0 0 0 0 0 0 5 542 564 586 608 630 
0 0 0 0 0 0 3 447 448 457 
3 1 1 0 1 0 2 465 449 
7 5 5 0 4 0 2 465 449 
8 3 3 0 2 0 2 453 450 
8 3 10 0 4 0 2 456 451 
7 4 4 0 5 0 2 467 452 
2 8 6 0 4 0 2 463 454 
5 5 6 0 5 0 2 456 455 
7 5 4 0 7 0 1 455 
10 7 6 0 6 0 3 471 462 458 
5 4 3 0 5 0 2 471 458 
5 4 6 0 5 0 4 468 467 462 461 
10 5 4 0 5 0 2 468 459 
4 6 3 0 6 0 1 460 
4 5 3 0 5 0 1 461 
9 3 7 0 5 0 2 476 464 
5 3 5 0 3 0 2 476 464 
4 5 7 0 3 0 2 476 464 
3 7 4 0 8 0 3 475 470 466 
4 6 8 0 5 0 2 475 466 
3 6 7 0 5 0 3 474 473 469 
1 5 10 0 5 0 2 473 472 
9 7 6 0 2 0 1 469 
6 7 5 0 5 0 1 472 
5 6 3 0 4 0 1 473 
5 5 4 0 9 0 1 476 
6 2 1 0 3 0 1 477 
9 4 9 0 8 0 1 477 
7 6 3 0 8 0 1 477 
3 6 3 0 9 0 1 477 
10 7 4 0 4 0 1 477 
0 0 0 0 0 0 1 702 
0 0 0 0 0 0 3 479 480 508 
9 1 0 0 3 4 2 507 481 
3 9 0 0 3 3 2 507 481 
7 5 0 0 3 6 2 485 482 
3 5 0 0 4 4 2 489 483 
6 2 0 0 4 2 2 506 484 
7 7 0 0 4 4 2 497 486 
6 5 0 0 7 4 3 492 489 487 
7 8 0 0 3 4 2 492 487 
4 4 0 0 7 5 2 500 488 
6 3 0 0 3 6 2 496 490 
10 4 0 0 8 3 2 500 490 
2 6 0 0 7 5 1 491 
1 6 0 0 4 6 2 505 493 
7 4 0 0 10 4 4 505 504 499 495 
5 5 0 0 8 3 1 494 
4 8 0 0 5 3 3 504 499 495 
2 4 0 0 4 10 3 503 502 498 
3 5 0 0 4 7 1 498 
6 9 0 0 3 6 1 498 
10 3 0 0 5 5 1 501 
10 7 0 0 5 6 1 502 
4 5 0 0 4 4 1 505 
2 5 0 0 8 7 1 509 
5 2 0 0 4 1 1 509 
1 6 0 0 5 8 1 509 
2 4 0 0 6 3 1 509 
9 3 0 0 5 7 1 509 
7 3 0 0 7 5 1 509 
3 6 0 0 2 7 1 509 
5 6 0 0 5 8 1 509 
0 0 0 0 0 0 1 702 
0 0 0 0 0 0 6 511 536 537 538 539 540 
8 1 1 1 0 0 2 535 512 
1 2 5 7 0 0 3 534 533 513 
3 3 6 6 0 0 2 532 514 
2 5 4 2 0 0 2 531 515 
8 2 4 7 0 0 1 516 
10 5 6 8 0 0 1 517 
4 5 4 3 0 0 4 530 529 528 518 
3 6 5 5 0 0 1 519 
1 5 6 4 0 0 1 520 
7 7 8 3 0 0 1 521 
10 5 1 6 0 0 3 527 526 522 
6 4 7 6 0 0 1 523 
1 6 7 6 0 0 1 524 
7 10 5 4 0 0 1 525 
5 4 6 2 0 0 1 541 
8 5 6 3 0 0 1 541 
3 5 5 6 0 0 1 541 
2 7 2 3 0 0 1 541 
5 6 8 4 0 0 1 541 
4 2 5 6 0 0 1 541 
4 8 3 5 0 0 1 541 
6 6 5 6 0 0 1 541 
1 5 4 1 0 0 1 541 
5 5 7 7 0 0 1 541 
6 4 6 7 0 0 1 541 
5 7 3 9 0 0 1 541 
3 4 4 7 0 0 1 541 
7 5 6 7 0 0 1 541 
5 6 5 4 0 0 1 541 
10 5 6 5 0 0 1 541 
0 0 0 0 0 0 1 702 
0 0 0 0 0 0 2 543 544 
10 1 1 0 0 0 2 547 546 
1 7 4 0 0 0 2 549 545 
2 6 1 0 0 0 1 547 
5 1 4 0 0 0 2 550 549 
2 5 3 0 0 0 1 548 
1 5 5 0 0 0 2 552 550 
2 3 5 0 0 0 4 556 553 552 551 
2 7 6 0 0 0 3 556 553 551 
9 2 5 0 0 0 2 555 554 
7 6 7 0 0 0 2 555 554 
4 4 8 0 0 0 3 559 558 555 
9 6 5 0 0 0 4 562 559 558 557 
6 4 6 0 0 0 2 562 557 
3 5 3 0 0 0 1 557 
4 4 7 0 0 0 1 560 
10 8 4 0 0 0 1 560 
5 3 7 0 0 0 1 560 
10 4 5 0 0 0 1 561 
6 10 9 0 0 0 1 563 
4 9 5 0 0 0 1 563 
0 0 0 0 0 0 1 702 
0 0 0 0 0 0 5 565 574 582 583 584 
8 0 2 1 0 0 1 566 
3 0 3 6 0 0 3 581 580 567 
4 0 6 9 0 0 5 579 578 577 576 568 
2 0 6 4 0 0 1 569 
6 0 3 5 0 0 1 570 
9 0 4 6 0 0 1 571 
9 0 5 2 0 0 1 572 
5 0 4 3 0 0 1 573 
2 0 10 4 0 0 1 575 
4 0 4 5 0 0 1 576 
1 0 6 6 0 0 1 585 
2 0 6 5 0 0 1 585 
7 0 1 8 0 0 1 585 
3 0 4 4 0 0 1 585 
8 0 4 5 0 0 1 585 
6 0 5 9 0 0 1 585 
4 0 7 4 0 0 1 585 
3 0 10 4 0 0 1 585 
10 0 4 5 0 0 1 585 
9 0 6 5 0 0 1 585 
0 0 0 0 0 0 1 702 
0 0 0 0 0 0 2 587 588 
3 0 1 0 0 1 2 591 590 
7 0 5 0 0 5 2 593 589 
5 0 6 0 0 2 1 590 
8 0 8 0 0 7 3 600 596 592 
3 0 2 0 0 6 2 594 593 
3 0 6 0 0 5 2 598 594 
2 0 3 0 0 4 2 600 596 
5 0 7 0 0 7 1 595 
2 0 4 0 0 3 2 599 597 
6 0 3 0 0 8 2 599 597 
7 0 7 0 0 5 3 603 602 601 
6 0 3 0 0 8 3 606 602 601 
1 0 6 0 0 5 2 606 604 
3 0 6 0 0 5 1 601 
2 0 8 0 0 3 1 604 
2 0 6 0 0 4 1 604 
9 0 4 0 0 6 1 604 
2 0 4 0 0 3 1 605 
5 0 7 0 0 7 1 607 
9 0 4 0 0 6 1 607 
0 0 0 0 0 0 1 702 
0 0 0 0 0 0 7 609 623 624 625 626 627 628 
6 0 0 1 0 1 3 622 621 610 
10 0 0 7 0 4 3 620 619 611 
2 0 0 3 0 6 1 612 
9 0 0 9 0 3 1 613 
7 0 0 1 0 4 1 614 
1 0 0 4 0 4 1 615 
4 0 0 7 0 9 1 616 
2 0 0 5 0 5 1 617 
10 0 0 5 0 5 1 618 
4 0 0 6 0 9 1 629 
4 0 0 5 0 7 1 629 
1 0 0 5 0 6 1 629 
4 0 0 5 0 3 1 629 
7 0 0 6 0 6 1 629 
2 0 0 7 0 4 1 629 
8 0 0 3 0 4 1 629 
9 0 0 7 0 4 1 629 
10 0 0 4 0 10 1 629 
8 0 0 4 0 2 1 629 
10 0 0 6 0 4 1 629 
0 0 0 0 0 0 1 702 
0 0 0 0 0 0 1 631 
2 0 0 0 1 0 3 640 633 632 
1 0 0 0 8 0 3 639 638 635 
1 0 0 0 7 0 2 637 634 
9 0 0 0 1 0 1 635 
10 0 0 0 10 0 1 636 
1 0 0 0 4 0 1 641 
6 0 0 0 4 0 1 641 
7 0 0 0 7 0 1 641 
3 0 0 0 5 0 1 641 
1 0 0 0 3 0 1 641 
0 0 0 0 0 0 5 642 654 666 678 690 
0 0 0 0 0 0 6 643 644 645 648 651 652 
9 0 0 1 0 0 1 646 
1 0 0 10 0 0 1 646 
10 0 0 3 0 0 1 646 
8 0 0 2 0 0 1 647 
5 0 0 5 0 0 1 649 
8 0 0 9 0 0 1 649 
6 0 0 4 0 0 1 650 
2 0 0 5 0 0 1 653 
3 0 0 6 0 0 1 653 
5 0 0 5 0 0 1 653 
0 0 0 0 0 0 1 702 
0 0 0 0 0 0 3 655 656 664 
4 0 0 0 0 1 2 660 657 
6 0 0 0 0 6 3 663 662 658 
1 0 0 0 0 8 1 658 
8 0 0 0 0 4 1 659 
9 0 0 0 0 2 1 661 
4 0 0 0 0 7 1 662 
8 0 0 0 0 7 1 665 
3 0 0 0 0 8 1 665 
1 0 0 0 0 3 1 665 
8 0 0 0 0 4 1 665 
0 0 0 0 0 0 1 702 
0 0 0 0 0 0 1 667 
5 0 0 1 0 0 4 676 673 670 668 
1 0 0 7 0 0 2 672 669 
9 0 0 8 0 0 2 674 671 
4 0 0 5 0 0 2 674 671 
9 0 0 4 0 0 1 675 
8 0 0 5 0 0 1 674 
6 0 0 5 0 0 1 674 
6 0 0 4 0 0 1 677 
7 0 0 4 0 0 1 677 
2 0 0 7 0 0 1 677 
0 0 0 0 0 0 1 702 
0 0 0 0 0 0 3 679 681 684 
7 1 0 0 0 0 2 686 680 
4 4 0 0 0 0 2 683 682 
6 6 0 0 0 0 1 682 
6 8 0 0 0 0 2 687 685 
10 6 0 0 0 0 2 687 685 
3 2 0 0 0 0 2 687 685 
2 6 0 0 0 0 1 688 
1 5 0 0 0 0 1 687 
9 4 0 0 0 0 1 689 
6 8 0 0 0 0 1 689 
0 0 0 0 0 0 1 702 
0 0 0 0 0 0 3 691 692 697 
2 0 0 1 0 0 2 695 694 
4 0 0 6 0 0 1 693 
6 0 0 7 0 0 2 696 695 
9 0 0 8 0 0 2 698 696 
2 0 0 5 0 0 2 700 698 
1 0 0 3 0 0 2 700 699 
9 0 0 5 0 0 1 698 
6 0 0 4 0 0 1 699 
5 0 0 3 0 0 1 701 
2 0 0 8 0 0 1 701 
0 0 0 0 0 0 1 702 
0 0 0 0 0 0 0 
